c Random 3-SAT formula
c Number of variables: 5
c Number of clauses: 18
p cnf 5 18
4 3 1 0
-1 2 -5 0
4 2 5 0
-4 -1 2 0
-4 1 2 0
4 -2 -5 0
3 -2 -1 0
3 1 2 0
3 2 -5 0
4 -2 3 0
1 -2 -4 0
-5 4 2 0
-4 -5 3 0
2 5 -3 0
1 5 3 0
5 -2 1 0
-4 -2 1 0
3 5 -1 0
